
























































































68 7 76 
50 62 33 
75 1 31 37 
17 30 2 
3 16 39 
69 74 66 
14 29 13 
0 26 11 
27 22 5 
24 45 36 
6 67 41 23 
54 70 32 
47 8 10 
38 9 
51 34 64 
48 61 40 
19 44 28 
53 4 20 
25 59 46 
58 65 55 
56 21 60 49 
63 71 42 
12 73 
57 15 
18 43 35 
52 72 
